sing20230705.00
TTAA  55001 48698
99007 28037 05502 00091 27422 04502 92780 22419 04512
85518 18836 01516 70156 09248 36021 50589 04348 08510
40762 14360 10014 30973 30356 10012 25100 40556 09027
20248 53357 08527 15428 65968 09521 10662 80350 18514
88106 82950 10512
77999=
TTCC  55007 48698
70870 70568 25025
88999
77999=
TTDD  5500/ 48698
11959 78358 22901 79356 33861 77158 44842 71963 55798 69165
66717 71167 77600 66571
21212 11977 17512 22943 29010 33930 31014 44873 35012 55860
31502 66853 23002 77833 26510 88806 24023 99750 25047 11701
25527 22665 25537 33600 27023=
